; PUSH cw_3 MLOAD CALLER SWAP1 PUSH cw_2 SWAP1 => CALLER PUSH cw_2 PUSH cw_3 MLOAD
(set-option :produce-proofs true)
; 
(set-info :status unknown)
(declare-fun storage_t ((_ BitVec 256) (_ BitVec 256) (_ BitVec 256) (_ BitVec 256) Int (_ BitVec 256)) (_ BitVec 256))
(declare-fun w_2 () (_ BitVec 256))
(declare-fun w_3 () (_ BitVec 256))
(declare-fun storage_s ((_ BitVec 256) (_ BitVec 256) (_ BitVec 256) (_ BitVec 256) Int (_ BitVec 256)) (_ BitVec 256))
(declare-fun exc_halt_t (Int) Bool)
(declare-fun exc_halt_s (Int) Bool)
(declare-fun sc_t (Int) (_ BitVec 6))
(declare-fun stack_t ((_ BitVec 256) (_ BitVec 256) (_ BitVec 256) (_ BitVec 256) Int (_ BitVec 6)) (_ BitVec 256))
(declare-fun stack_s ((_ BitVec 256) (_ BitVec 256) (_ BitVec 256) (_ BitVec 256) Int (_ BitVec 6)) (_ BitVec 256))
(declare-fun sc_s (Int) (_ BitVec 6))
(declare-fun used_gas_t ((_ BitVec 256) (_ BitVec 256) (_ BitVec 256) (_ BitVec 256) Int) Int)
(declare-fun used_gas_s ((_ BitVec 256) (_ BitVec 256) (_ BitVec 256) (_ BitVec 256) Int) Int)
(declare-fun f_MLOAD ((_ BitVec 256) (_ BitVec 256) (_ BitVec 256) (_ BitVec 256) (_ BitVec 256)) (_ BitVec 256))
(assert
 (exists ((x_CALLER (_ BitVec 256)) (x_MLOAD_0 (_ BitVec 256)) )(let (($x4107 (forall ((w (_ BitVec 256)) )(let ((?x4258 (storage_t w_3 w_2 x_CALLER x_MLOAD_0 4 w)))
 (let ((?x10269 (storage_s w_3 w_2 x_CALLER x_MLOAD_0 6 w)))
 (= ?x10269 ?x4258))))
 ))
 (let (($x3723 (exc_halt_t 4)))
 (let (($x772 (exc_halt_s 6)))
 (let (($x10342 (= $x772 $x3723)))
 (let (($x9731 (forall ((n (_ BitVec 6)) )(let ((?x3757 (sc_t 4)))
 (let (($x9035 (bvsle ?x3757 n)))
 (let ((?x8126 (stack_t w_3 w_2 x_CALLER x_MLOAD_0 4 n)))
 (let ((?x6240 (stack_s w_3 w_2 x_CALLER x_MLOAD_0 6 n)))
 (let (($x8537 (= ?x6240 ?x8126)))
 (or $x8537 $x9035)))))))
 ))
 (let ((?x3757 (sc_t 4)))
 (let ((?x926 (sc_s 6)))
 (let (($x11286 (= ?x926 ?x3757)))
 (let ((?x7419 (used_gas_t w_3 w_2 x_CALLER x_MLOAD_0 0)))
 (let ((?x4478 (used_gas_s w_3 w_2 x_CALLER x_MLOAD_0 0)))
 (let (($x9680 (= ?x4478 ?x7419)))
 (let (($x1108 (forall ((w (_ BitVec 256)) )(let ((?x5630 (storage_t w_3 w_2 x_CALLER x_MLOAD_0 0 w)))
 (let ((?x3369 (storage_s w_3 w_2 x_CALLER x_MLOAD_0 0 w)))
 (= ?x3369 ?x5630))))
 ))
 (let (($x56 (exc_halt_t 0)))
 (let (($x57 (exc_halt_s 0)))
 (let (($x58 (= $x57 $x56)))
 (let (($x6472 (forall ((n (_ BitVec 6)) )(let ((?x63 (sc_t 0)))
 (let (($x5025 (bvsle ?x63 n)))
 (let ((?x5016 (stack_t w_3 w_2 x_CALLER x_MLOAD_0 0 n)))
 (let ((?x8952 (stack_s w_3 w_2 x_CALLER x_MLOAD_0 0 n)))
 (let (($x1629 (= ?x8952 ?x5016)))
 (or $x1629 $x5025)))))))
 ))
 (let ((?x63 (sc_t 0)))
 (let ((?x72 (sc_s 0)))
 (let (($x73 (= ?x72 ?x63)))
 (let (($x5122 (= $x3723 (or (exc_halt_t 3) (not (bvsle (_ bv0 6) (bvadd (_ bv63 6) (sc_t 3))))))))
 (let (($x11805 (forall ((w (_ BitVec 256)) )(let ((?x8271 (storage_t w_3 w_2 x_CALLER x_MLOAD_0 3 w)))
 (let ((?x4258 (storage_t w_3 w_2 x_CALLER x_MLOAD_0 4 w)))
 (= ?x4258 ?x8271))))
 ))
 (let (($x564 (forall ((n (_ BitVec 6)) )(let ((?x5809 (stack_t w_3 w_2 x_CALLER x_MLOAD_0 3 n)))
 (let ((?x8126 (stack_t w_3 w_2 x_CALLER x_MLOAD_0 4 n)))
 (or (= ?x8126 ?x5809) (bvsle (bvadd (_ bv63 6) (sc_t 3)) n)))))
 ))
 (let ((?x6011 (sc_t 3)))
 (let (($x1024 (= ?x3757 ?x6011)))
 (let (($x5052 (= (used_gas_t w_3 w_2 x_CALLER x_MLOAD_0 4) (+ 3 (used_gas_t w_3 w_2 x_CALLER x_MLOAD_0 3)))))
 (let ((?x1814 (f_MLOAD w_3 w_2 x_CALLER x_MLOAD_0 (stack_t w_3 w_2 x_CALLER x_MLOAD_0 3 (bvadd (_ bv63 6) ?x6011)))))
 (let (($x3975 (not (= ((_ extract 6 6) (bvadd (_ bv1 7) (concat (_ bv0 1) (sc_t 2)))) (_ bv0 1)))))
 (let (($x5252 (exc_halt_t 2)))
 (let (($x1097 (exc_halt_t 3)))
 (let (($x6976 (forall ((w (_ BitVec 256)) )(let ((?x1136 (storage_t w_3 w_2 x_CALLER x_MLOAD_0 2 w)))
 (let ((?x8271 (storage_t w_3 w_2 x_CALLER x_MLOAD_0 3 w)))
 (= ?x8271 ?x1136))))
 ))
 (let (($x5511 (forall ((n (_ BitVec 6)) )(let ((?x2714 (sc_t 2)))
 (let (($x1985 (bvsle ?x2714 n)))
 (let ((?x11017 (stack_t w_3 w_2 x_CALLER x_MLOAD_0 2 n)))
 (let ((?x5809 (stack_t w_3 w_2 x_CALLER x_MLOAD_0 3 n)))
 (or (= ?x5809 ?x11017) $x1985))))))
 ))
 (let (($x1161 (= ?x6011 (bvadd (_ bv1 6) (sc_t 2)))))
 (let ((?x6072 (used_gas_t w_3 w_2 x_CALLER x_MLOAD_0 3)))
 (let (($x11099 (not (= ((_ extract 6 6) (bvadd (_ bv1 7) (concat (_ bv0 1) (sc_t 1)))) (_ bv0 1)))))
 (let (($x3120 (exc_halt_t 1)))
 (let (($x744 (= $x5252 (or $x3120 $x11099))))
 (let (($x9838 (forall ((w (_ BitVec 256)) )(let ((?x5597 (storage_t w_3 w_2 x_CALLER x_MLOAD_0 1 w)))
 (let ((?x1136 (storage_t w_3 w_2 x_CALLER x_MLOAD_0 2 w)))
 (= ?x1136 ?x5597))))
 ))
 (let (($x1959 (forall ((n (_ BitVec 6)) )(let ((?x6052 (sc_t 1)))
 (let (($x8432 (bvsle ?x6052 n)))
 (let ((?x6815 (stack_t w_3 w_2 x_CALLER x_MLOAD_0 1 n)))
 (let ((?x11017 (stack_t w_3 w_2 x_CALLER x_MLOAD_0 2 n)))
 (or (= ?x11017 ?x6815) $x8432))))))
 ))
 (let ((?x2714 (sc_t 2)))
 (let (($x2185 (= ?x2714 (bvadd (_ bv1 6) (sc_t 1)))))
 (let ((?x6584 (used_gas_t w_3 w_2 x_CALLER x_MLOAD_0 2)))
 (let (($x4387 (= $x3120 (or $x56 (not (= ((_ extract 6 6) (bvadd (_ bv1 7) (concat (_ bv0 1) ?x63))) (_ bv0 1)))))))
 (let (($x6134 (forall ((w (_ BitVec 256)) )(let ((?x5630 (storage_t w_3 w_2 x_CALLER x_MLOAD_0 0 w)))
 (let ((?x5597 (storage_t w_3 w_2 x_CALLER x_MLOAD_0 1 w)))
 (= ?x5597 ?x5630))))
 ))
 (let (($x6883 (forall ((n (_ BitVec 6)) )(let ((?x63 (sc_t 0)))
 (let (($x5025 (bvsle ?x63 n)))
 (let ((?x5016 (stack_t w_3 w_2 x_CALLER x_MLOAD_0 0 n)))
 (let ((?x6815 (stack_t w_3 w_2 x_CALLER x_MLOAD_0 1 n)))
 (or (= ?x6815 ?x5016) $x5025))))))
 ))
 (let ((?x6052 (sc_t 1)))
 (let (($x4139 (= ?x6052 (bvadd (_ bv1 6) ?x63))))
 (let (($x1208 (= $x772 (or (exc_halt_s 5) (not (bvsle (_ bv0 6) (bvadd (_ bv62 6) (sc_s 5))))))))
 (let (($x10222 (forall ((w (_ BitVec 256)) )(let ((?x11360 (storage_s w_3 w_2 x_CALLER x_MLOAD_0 5 w)))
 (let ((?x10269 (storage_s w_3 w_2 x_CALLER x_MLOAD_0 6 w)))
 (= ?x10269 ?x11360))))
 ))
 (let (($x10407 (forall ((n (_ BitVec 6)) )(let ((?x805 (sc_s 5)))
 (let ((?x2282 (bvadd (_ bv62 6) ?x805)))
 (let (($x5998 (bvsle ?x2282 n)))
 (let ((?x10120 (stack_s w_3 w_2 x_CALLER x_MLOAD_0 5 n)))
 (let ((?x6240 (stack_s w_3 w_2 x_CALLER x_MLOAD_0 6 n)))
 (or (= ?x6240 ?x10120) $x5998)))))))
 ))
 (let ((?x805 (sc_s 5)))
 (let (($x6427 (= ?x926 ?x805)))
 (let (($x1749 (= (used_gas_s w_3 w_2 x_CALLER x_MLOAD_0 6) (+ 3 (used_gas_s w_3 w_2 x_CALLER x_MLOAD_0 5)))))
 (let (($x5010 (= (stack_s w_3 w_2 x_CALLER x_MLOAD_0 6 (bvadd (_ bv62 6) ?x926)) (stack_s w_3 w_2 x_CALLER x_MLOAD_0 5 (bvadd (_ bv63 6) ?x805)))))
 (let (($x2894 (= (stack_s w_3 w_2 x_CALLER x_MLOAD_0 6 (bvadd (_ bv63 6) ?x926)) (stack_s w_3 w_2 x_CALLER x_MLOAD_0 5 (bvadd (_ bv62 6) ?x805)))))
 (let (($x4535 (not (= ((_ extract 6 6) (bvadd (_ bv1 7) (concat (_ bv0 1) (sc_s 4)))) (_ bv0 1)))))
 (let (($x7172 (exc_halt_s 4)))
 (let (($x3979 (exc_halt_s 5)))
 (let (($x3448 (forall ((w (_ BitVec 256)) )(let ((?x3018 (storage_s w_3 w_2 x_CALLER x_MLOAD_0 4 w)))
 (let ((?x11360 (storage_s w_3 w_2 x_CALLER x_MLOAD_0 5 w)))
 (= ?x11360 ?x3018))))
 ))
 (let (($x10292 (forall ((n (_ BitVec 6)) )(let ((?x7381 (stack_s w_3 w_2 x_CALLER x_MLOAD_0 4 n)))
 (let ((?x10120 (stack_s w_3 w_2 x_CALLER x_MLOAD_0 5 n)))
 (or (= ?x10120 ?x7381) (bvsle (sc_s 4) n)))))
 ))
 (let (($x11113 (= ?x805 (bvadd (_ bv1 6) (sc_s 4)))))
 (let ((?x1818 (used_gas_s w_3 w_2 x_CALLER x_MLOAD_0 5)))
 (let (($x8182 (= $x7172 (or (exc_halt_s 3) (not (bvsle (_ bv0 6) (bvadd (_ bv62 6) (sc_s 3))))))))
 (let (($x10641 (forall ((w (_ BitVec 256)) )(let ((?x5942 (storage_s w_3 w_2 x_CALLER x_MLOAD_0 3 w)))
 (let ((?x3018 (storage_s w_3 w_2 x_CALLER x_MLOAD_0 4 w)))
 (= ?x3018 ?x5942))))
 ))
 (let (($x5373 (forall ((n (_ BitVec 6)) )(let ((?x5109 (stack_s w_3 w_2 x_CALLER x_MLOAD_0 3 n)))
 (let ((?x7381 (stack_s w_3 w_2 x_CALLER x_MLOAD_0 4 n)))
 (let ((?x275 (sc_s 3)))
 (let ((?x7283 (bvadd (_ bv62 6) ?x275)))
 (let (($x49 (bvsle ?x7283 n)))
 (or $x49 (= ?x7381 ?x5109))))))))
 ))
 (let ((?x275 (sc_s 3)))
 (let ((?x4305 (sc_s 4)))
 (let (($x5056 (= ?x4305 ?x275)))
 (let ((?x9952 (used_gas_s w_3 w_2 x_CALLER x_MLOAD_0 4)))
 (let (($x267 (= (stack_s w_3 w_2 x_CALLER x_MLOAD_0 4 (bvadd (_ bv62 6) ?x4305)) (stack_s w_3 w_2 x_CALLER x_MLOAD_0 3 (bvadd (_ bv63 6) ?x275)))))
 (let (($x10562 (= (stack_s w_3 w_2 x_CALLER x_MLOAD_0 4 (bvadd (_ bv63 6) ?x4305)) (stack_s w_3 w_2 x_CALLER x_MLOAD_0 3 (bvadd (_ bv62 6) ?x275)))))
 (let (($x8482 (not (= ((_ extract 6 6) (bvadd (_ bv1 7) (concat (_ bv0 1) (sc_s 2)))) (_ bv0 1)))))
 (let (($x247 (exc_halt_s 2)))
 (let (($x292 (exc_halt_s 3)))
 (let (($x4273 (forall ((w (_ BitVec 256)) )(let ((?x10098 (storage_s w_3 w_2 x_CALLER x_MLOAD_0 2 w)))
 (let ((?x5942 (storage_s w_3 w_2 x_CALLER x_MLOAD_0 3 w)))
 (= ?x5942 ?x10098))))
 ))
 (let (($x9777 (forall ((n (_ BitVec 6)) )(let ((?x1436 (stack_s w_3 w_2 x_CALLER x_MLOAD_0 2 n)))
 (let ((?x5109 (stack_s w_3 w_2 x_CALLER x_MLOAD_0 3 n)))
 (or (bvsle (sc_s 2) n) (= ?x5109 ?x1436)))))
 ))
 (let (($x2652 (= ?x275 (bvadd (_ bv1 6) (sc_s 2)))))
 (let ((?x6129 (used_gas_s w_3 w_2 x_CALLER x_MLOAD_0 3)))
 (let (($x1263 (= $x247 (or (exc_halt_s 1) (not (bvsle (_ bv0 6) (bvadd (_ bv63 6) (sc_s 1))))))))
 (let (($x8085 (forall ((w (_ BitVec 256)) )(let ((?x7539 (storage_s w_3 w_2 x_CALLER x_MLOAD_0 1 w)))
 (let ((?x10098 (storage_s w_3 w_2 x_CALLER x_MLOAD_0 2 w)))
 (= ?x10098 ?x7539))))
 ))
 (let (($x5586 (forall ((n (_ BitVec 6)) )(let ((?x5789 (stack_s w_3 w_2 x_CALLER x_MLOAD_0 1 n)))
 (let ((?x1436 (stack_s w_3 w_2 x_CALLER x_MLOAD_0 2 n)))
 (or (bvsle (bvadd (_ bv63 6) (sc_s 1)) n) (= ?x1436 ?x5789)))))
 ))
 (let ((?x154 (sc_s 1)))
 (let ((?x218 (sc_s 2)))
 (let (($x7086 (= ?x218 ?x154)))
 (let ((?x3506 (used_gas_s w_3 w_2 x_CALLER x_MLOAD_0 2)))
 (let ((?x3977 (f_MLOAD w_3 w_2 x_CALLER x_MLOAD_0 (stack_s w_3 w_2 x_CALLER x_MLOAD_0 1 (bvadd (_ bv63 6) ?x154)))))
 (let (($x189 (exc_halt_s 1)))
 (let (($x1654 (= $x189 (or $x57 (not (= ((_ extract 6 6) (bvadd (_ bv1 7) (concat (_ bv0 1) ?x72))) (_ bv0 1)))))))
 (let (($x10454 (forall ((w (_ BitVec 256)) )(let ((?x3369 (storage_s w_3 w_2 x_CALLER x_MLOAD_0 0 w)))
 (let ((?x7539 (storage_s w_3 w_2 x_CALLER x_MLOAD_0 1 w)))
 (= ?x7539 ?x3369))))
 ))
 (let (($x4709 (forall ((n (_ BitVec 6)) )(let ((?x72 (sc_s 0)))
 (let (($x3386 (bvsle ?x72 n)))
 (let ((?x8952 (stack_s w_3 w_2 x_CALLER x_MLOAD_0 0 n)))
 (let ((?x5789 (stack_s w_3 w_2 x_CALLER x_MLOAD_0 1 n)))
 (or (= ?x5789 ?x8952) $x3386))))))
 ))
 (let (($x7749 (= ?x154 (bvadd (_ bv1 6) ?x72))))
 (let (($x1702 (forall ((w0 (_ BitVec 256)) )(let (($x8103 (= (stack_s w_3 w_2 x_CALLER x_MLOAD_0 1 (bvadd (_ bv63 6) (sc_s 1))) w0)))
 (let ((?x6431 (f_MLOAD w_3 w_2 x_CALLER x_MLOAD_0 w0)))
 (= ?x6431 (ite $x8103 x_MLOAD_0 (_ bv0 256))))))
 ))
 (let (($x7956 (forall ((w (_ BitVec 256)) )(let ((?x3369 (storage_s w_3 w_2 x_CALLER x_MLOAD_0 0 w)))
 (= ?x3369 (_ bv0 256))))
 ))
 (let (($x9490 (= ?x4478 0)))
 (let (($x5167 (not $x57)))
 (let (($x9817 (= ?x72 (_ bv0 6))))
 (and $x9817 $x5167 $x9490 $x7956 $x1702 (= (stack_s w_3 w_2 x_CALLER x_MLOAD_0 1 ?x72) w_3) (= (used_gas_s w_3 w_2 x_CALLER x_MLOAD_0 1) (+ 3 ?x4478)) $x7749 $x4709 $x10454 $x1654 (= (stack_s w_3 w_2 x_CALLER x_MLOAD_0 2 (bvadd (_ bv63 6) ?x218)) ?x3977) (= ?x3506 (+ 3 (used_gas_s w_3 w_2 x_CALLER x_MLOAD_0 1))) $x7086 $x5586 $x8085 $x1263 (= (stack_s w_3 w_2 x_CALLER x_MLOAD_0 3 ?x218) x_CALLER) (= ?x6129 (+ 2 ?x3506)) $x2652 $x9777 $x4273 (= $x292 (or $x247 $x8482)) $x10562 $x267 (= ?x9952 (+ 3 ?x6129)) $x5056 $x5373 $x10641 $x8182 (= (stack_s w_3 w_2 x_CALLER x_MLOAD_0 5 ?x4305) w_2) (= ?x1818 (+ 3 ?x9952)) $x11113 $x10292 $x3448 (= $x3979 (or $x7172 $x4535)) $x2894 $x5010 $x1749 $x6427 $x10407 $x10222 $x1208 (= (stack_t w_3 w_2 x_CALLER x_MLOAD_0 1 ?x63) x_CALLER) (= (used_gas_t w_3 w_2 x_CALLER x_MLOAD_0 1) (+ 2 ?x7419)) $x4139 $x6883 $x6134 $x4387 (= (stack_t w_3 w_2 x_CALLER x_MLOAD_0 2 ?x6052) w_2) (= ?x6584 (+ 3 (used_gas_t w_3 w_2 x_CALLER x_MLOAD_0 1))) $x2185 $x1959 $x9838 $x744 (= (stack_t w_3 w_2 x_CALLER x_MLOAD_0 3 ?x2714) w_3) (= ?x6072 (+ 3 ?x6584)) $x1161 $x5511 $x6976 (= $x1097 (or $x5252 $x3975)) (= (stack_t w_3 w_2 x_CALLER x_MLOAD_0 4 (bvadd (_ bv63 6) ?x3757)) ?x1814) $x5052 $x1024 $x564 $x11805 $x5122 $x73 $x6472 $x58 $x1108 $x9680 (not (and $x11286 $x9731 $x10342 $x4107)))))))))))))))))))))))))))))))))))))))))))))))))))))))))))))))))))))))))))))))))))))))))))))))))))
 )
(check-sat)
(get-proof)
